100
120
100
100
100
99
98
98
98
98
97
97
96
95
95
93
92
91
90
90
90
89
88
88
86
86
85
85
83
82
81
81
80
76
76
76
74
74
73
73
73
71
71
71
70
70
69
68
68
67
67
67
66
66
66
65
64
64
64
62
61
59
58
58
55
55
55
54
52
51
50
50
49
49
49
49
48
47
47
47
44
44
43
43
40
40
38
38
38
37
37
37
36
36
36
36
35
33
32
32
31
30
